param n:=6;
 param m:=7;
 # x[1]=P1; x[2]=P2; x[3]=O; x[4]=R; x[5]=A1; x[6]=A2.
 param c :=
 1 15
 2 8
 3 -6
 4 -1.5
 5 -1
 6 -1;
 param b :=
 1 50
 2 60
 3 160
 4 0
 5 400
 6 100
 7 320;
 param a: 1 2 3 4 5 6:=
 1 1 0 0 0 -10 0
 2 0 1 0 0 0 -15
 3 0.75 0.5 -1 0 0 0
 4 2 1 0 -1 0 0
 5 0 0 0 1 0 0
 6 0 0 0 0 1 1
 7 1.5 0.8 0 0 0 0;